datasets/2-dimensional/CL_08_25_07.vbp
2
150 150 
25
30 82 30
32 82 72
74 39 4
67 48 88
30 80 54
87 32 64
69 49 90
74 43 26
66 50 94
36 76 28
82 32 72
89 25 49
47 70 54
55 57 19
77 35 28
24 88 61
73 38 84
29 82 23
44 73 67
55 55 53
27 83 54
30 83 16
82 37 9
68 42 54
60 50 77
