datasets/2-dimensional-benchmark/CL_08_25_07.txt
150 150 
0 30 30 82 
1 72 32 82 
2 4 74 39 
3 88 67 48 
4 54 30 80 
5 64 87 32 
6 90 69 49 
7 26 74 43 
8 94 66 50 
9 28 36 76 
10 72 82 32 
11 49 89 25 
12 54 47 70 
13 19 55 57 
14 28 77 35 
15 61 24 88 
16 84 73 38 
17 23 29 82 
18 67 44 73 
19 53 55 55 
20 54 27 83 
21 16 30 83 
22 9 82 37 
23 54 68 42 
24 77 60 50 
